
Gurobi 7.5.1 (mac64, Python) logging started Wed Oct 11 16:49:18 2017

Academic license - for non-commercial use only

Gurobi 7.5.1 (mac64, Python) logging started Wed Oct 11 16:49:37 2017

Academic license - for non-commercial use only

Gurobi 7.5.1 (mac64, Python) logging started Wed Oct 11 16:49:56 2017

Academic license - for non-commercial use only

Gurobi 7.5.1 (mac64, Python) logging started Wed Oct 11 16:50:43 2017

Academic license - for non-commercial use only

Gurobi 7.5.1 (mac64, Python) logging started Wed Oct 11 16:52:51 2017

Academic license - for non-commercial use only

Gurobi 7.5.1 (mac64, Python) logging started Wed Oct 11 16:53:15 2017

Academic license - for non-commercial use only

Gurobi 7.5.1 (mac64, Python) logging started Wed Oct 11 16:53:26 2017

Academic license - for non-commercial use only

Gurobi 7.5.1 (mac64, Python) logging started Wed Oct 11 16:53:57 2017

Academic license - for non-commercial use only

Gurobi 7.5.1 (mac64, Python) logging started Wed Oct 11 16:54:03 2017

Academic license - for non-commercial use only

Gurobi 7.5.1 (mac64, Python) logging started Wed Oct 11 16:54:25 2017

Academic license - for non-commercial use only

Gurobi 7.5.1 (mac64, Python) logging started Wed Oct 11 17:14:52 2017

Academic license - for non-commercial use only

Gurobi 7.5.1 (mac64, Python) logging started Wed Oct 11 17:15:29 2017

Academic license - for non-commercial use only

Gurobi 7.5.1 (mac64, Python) logging started Wed Oct 11 17:22:10 2017

Academic license - for non-commercial use only

Gurobi 7.5.1 (mac64, Python) logging started Mon Oct 16 12:46:40 2017

Academic license - for non-commercial use only

Gurobi 7.5.1 (mac64, Python) logging started Mon Oct 16 12:47:03 2017

Academic license - for non-commercial use only

Gurobi 7.5.1 (mac64, Python) logging started Mon Oct 16 13:44:35 2017

Academic license - for non-commercial use only

Gurobi 7.5.1 (mac64, Python) logging started Mon Oct 16 13:45:15 2017

Academic license - for non-commercial use only

Gurobi 7.5.1 (mac64, Python) logging started Mon Oct 16 13:45:27 2017

Academic license - for non-commercial use only

Gurobi 7.5.1 (mac64, Python) logging started Mon Oct 16 13:45:52 2017

Academic license - for non-commercial use only

Gurobi 7.5.1 (mac64, Python) logging started Mon Oct 16 13:46:29 2017

Academic license - for non-commercial use only

Gurobi 7.5.1 (mac64, Python) logging started Mon Oct 16 13:54:14 2017

Academic license - for non-commercial use only

Gurobi 7.5.1 (mac64, Python) logging started Mon Oct 16 13:55:37 2017

Academic license - for non-commercial use only

Gurobi 7.5.1 (mac64, Python) logging started Mon Oct 16 14:28:10 2017

Academic license - for non-commercial use only

Gurobi 7.5.1 (mac64, Python) logging started Mon Oct 16 14:28:31 2017

Academic license - for non-commercial use only

Gurobi 7.5.1 (mac64, Python) logging started Mon Oct 16 14:30:17 2017

Academic license - for non-commercial use only

Gurobi 7.5.1 (mac64, Python) logging started Mon Oct 16 14:30:48 2017

Academic license - for non-commercial use only

Gurobi 7.5.1 (mac64, Python) logging started Mon Oct 16 14:33:52 2017

Academic license - for non-commercial use only
Optimize a model with 19706 rows, 18252 columns and 120328 nonzeros
Variable types: 676 continuous, 17576 integer (17576 binary)
Coefficient statistics:
  Matrix range     [1e+00, 1e+04]
  Objective range  [1e+00, 4e+01]
  Bounds range     [1e+00, 1e+00]
  RHS range        [1e+00, 1e+04]
Presolve removed 16355 rows and 9360 columns
Presolve time: 0.41s
Presolved: 3351 rows, 8892 columns, 70200 nonzeros
Variable types: 676 continuous, 8216 integer (8216 binary)

Root relaxation: objective 7.689109e+02, 1493 iterations, 0.07 seconds

    Nodes    |    Current Node    |     Objective Bounds      |     Work
 Expl Unexpl |  Obj  Depth IntInf | Incumbent    BestBd   Gap | It/Node Time

     0     0  768.91088    0  116          -  768.91088      -     -    0s
     0     0  876.55247    0  118          -  876.55247      -     -    0s
     0     0 1042.84647    0  124          - 1042.84647      -     -    1s
     0     0 1093.69729    0  146          - 1093.69729      -     -    1s
     0     0 1093.69729    0  150          - 1093.69729      -     -    1s
     0     0 infeasible    0               - infeasible      -     -    1s

Cutting planes:
  Gomory: 13
  Cover: 16
  Implied bound: 11
  Clique: 4
  MIR: 26
  StrongCG: 11
  GUB cover: 32

Explored 1 nodes (3607 simplex iterations) in 1.26 seconds
Thread count was 8 (of 8 available processors)

Solution count 0

Model is infeasible
Best objective -, best bound -, gap -

Gurobi 7.5.1 (mac64, Python) logging started Mon Oct 16 14:35:34 2017

Academic license - for non-commercial use only
Optimize a model with 19706 rows, 18252 columns and 120328 nonzeros
Variable types: 676 continuous, 17576 integer (17576 binary)
Coefficient statistics:
  Matrix range     [1e+00, 1e+04]
  Objective range  [1e+00, 4e+01]
  Bounds range     [1e+00, 1e+00]
  RHS range        [1e+00, 1e+04]
Presolve removed 16355 rows and 9360 columns
Presolve time: 0.41s
Presolved: 3351 rows, 8892 columns, 70200 nonzeros
Variable types: 676 continuous, 8216 integer (8216 binary)

Root relaxation: objective 7.689109e+02, 1493 iterations, 0.07 seconds

    Nodes    |    Current Node    |     Objective Bounds      |     Work
 Expl Unexpl |  Obj  Depth IntInf | Incumbent    BestBd   Gap | It/Node Time

     0     0  768.91088    0  116          -  768.91088      -     -    0s
     0     0  876.55247    0  118          -  876.55247      -     -    0s
     0     0 1042.84647    0  124          - 1042.84647      -     -    1s
     0     0 1093.69729    0  146          - 1093.69729      -     -    1s
     0     0 1093.69729    0  150          - 1093.69729      -     -    1s
     0     0 infeasible    0               - infeasible      -     -    1s

Cutting planes:
  Gomory: 13
  Cover: 16
  Implied bound: 11
  Clique: 4
  MIR: 26
  StrongCG: 11
  GUB cover: 32

Explored 1 nodes (3607 simplex iterations) in 1.28 seconds
Thread count was 8 (of 8 available processors)

Solution count 0

Model is infeasible
Best objective -, best bound -, gap -

Gurobi 7.5.1 (mac64, Python) logging started Mon Oct 16 14:36:53 2017

Academic license - for non-commercial use only
Optimize a model with 19680 rows, 18252 columns and 119054 nonzeros
Variable types: 676 continuous, 17576 integer (17576 binary)
Coefficient statistics:
  Matrix range     [1e+00, 1e+04]
  Objective range  [1e+00, 4e+01]
  Bounds range     [1e+00, 1e+00]
  RHS range        [1e+00, 1e+04]
Found heuristic solution: objective 0

Explored 0 nodes (0 simplex iterations) in 0.01 seconds
Thread count was 1 (of 8 available processors)

Solution count 1: 0 

Optimal solution found (tolerance 1.00e-04)
Best objective 0.000000000000e+00, best bound 0.000000000000e+00, gap 0.0000%

Gurobi 7.5.1 (mac64, Python) logging started Mon Oct 16 14:38:03 2017

Academic license - for non-commercial use only
Optimize a model with 19680 rows, 18252 columns and 119054 nonzeros
Variable types: 676 continuous, 17576 integer (17576 binary)
Coefficient statistics:
  Matrix range     [1e+00, 1e+04]
  Objective range  [1e+00, 4e+01]
  Bounds range     [1e+00, 1e+00]
  RHS range        [1e+00, 1e+04]
Found heuristic solution: objective 0

Explored 0 nodes (0 simplex iterations) in 0.01 seconds
Thread count was 1 (of 8 available processors)

Solution count 1: 0 

Optimal solution found (tolerance 1.00e-04)
Best objective 0.000000000000e+00, best bound 0.000000000000e+00, gap 0.0000%

Gurobi 7.5.1 (mac64, Python) logging started Mon Oct 16 14:48:27 2017

Academic license - for non-commercial use only

Gurobi 7.5.1 (mac64, Python) logging started Mon Oct 16 15:15:02 2017

Academic license - for non-commercial use only
Optimize a model with 19680 rows, 18252 columns and 119054 nonzeros
Variable types: 676 continuous, 17576 integer (17576 binary)
Coefficient statistics:
  Matrix range     [1e+00, 1e+04]
  Objective range  [1e+00, 4e+01]
  Bounds range     [1e+00, 1e+00]
  RHS range        [1e+00, 1e+04]
Found heuristic solution: objective 0

Explored 0 nodes (0 simplex iterations) in 0.01 seconds
Thread count was 1 (of 8 available processors)

Solution count 1: 0 

Optimal solution found (tolerance 1.00e-04)
Best objective 0.000000000000e+00, best bound 0.000000000000e+00, gap 0.0000%

Gurobi 7.5.1 (mac64, Python) logging started Mon Oct 16 15:19:02 2017

Academic license - for non-commercial use only
Optimize a model with 1725 rows, 1452 columns and 8624 nonzeros
Variable types: 121 continuous, 1331 integer (1331 binary)
Coefficient statistics:
  Matrix range     [1e+00, 1e+04]
  Objective range  [1e+00, 2e+01]
  Bounds range     [1e+00, 1e+00]
  RHS range        [1e+00, 1e+04]
Found heuristic solution: objective 0

Explored 0 nodes (0 simplex iterations) in 0.00 seconds
Thread count was 1 (of 8 available processors)

Solution count 1: 0 

Optimal solution found (tolerance 1.00e-04)
Best objective 0.000000000000e+00, best bound 0.000000000000e+00, gap 0.0000%

Gurobi 7.5.1 (mac64, Python) logging started Mon Oct 16 15:21:41 2017

Academic license - for non-commercial use only
Optimize a model with 477 rows, 396 columns and 2352 nonzeros
Variable types: 33 continuous, 363 integer (363 binary)
Coefficient statistics:
  Matrix range     [1e+00, 1e+04]
  Objective range  [1e+00, 2e+01]
  Bounds range     [1e+00, 1e+00]
  RHS range        [1e+00, 1e+04]
Found heuristic solution: objective 0

Explored 0 nodes (0 simplex iterations) in 0.00 seconds
Thread count was 1 (of 8 available processors)

Solution count 1: 0 

Optimal solution found (tolerance 1.00e-04)
Best objective 0.000000000000e+00, best bound 0.000000000000e+00, gap 0.0000%

Gurobi 7.5.1 (mac64, Python) logging started Mon Oct 16 15:29:55 2017

Academic license - for non-commercial use only
Optimize a model with 477 rows, 396 columns and 2352 nonzeros
Variable types: 33 continuous, 363 integer (363 binary)
Coefficient statistics:
  Matrix range     [1e+00, 1e+04]
  Objective range  [1e+00, 2e+01]
  Bounds range     [1e+00, 1e+00]
  RHS range        [1e+00, 1e+04]
Found heuristic solution: objective 0

Explored 0 nodes (0 simplex iterations) in 0.00 seconds
Thread count was 1 (of 8 available processors)

Solution count 1: 0 

Optimal solution found (tolerance 1.00e-04)
Best objective 0.000000000000e+00, best bound 0.000000000000e+00, gap 0.0000%

Gurobi 7.5.1 (mac64, Python) logging started Mon Oct 16 15:33:52 2017

Academic license - for non-commercial use only
Optimize a model with 478 rows, 396 columns and 2415 nonzeros
Variable types: 33 continuous, 363 integer (363 binary)
Coefficient statistics:
  Matrix range     [1e+00, 1e+04]
  Objective range  [1e+00, 2e+01]
  Bounds range     [1e+00, 1e+00]
  RHS range        [1e+00, 1e+04]
Presolve removed 369 rows and 184 columns
Presolve time: 0.00s

Explored 0 nodes (0 simplex iterations) in 0.00 seconds
Thread count was 1 (of 8 available processors)

Solution count 0

Model is infeasible
Best objective -, best bound -, gap -

Gurobi 7.5.1 (mac64, Python) logging started Mon Oct 16 15:41:45 2017

Academic license - for non-commercial use only
Optimize a model with 478 rows, 396 columns and 2415 nonzeros
Variable types: 33 continuous, 363 integer (363 binary)
Coefficient statistics:
  Matrix range     [1e+00, 1e+04]
  Objective range  [1e+00, 2e+01]
  Bounds range     [1e+00, 1e+00]
  RHS range        [1e+00, 1e+04]
Presolve removed 369 rows and 184 columns
Presolve time: 0.00s

Explored 0 nodes (0 simplex iterations) in 0.00 seconds
Thread count was 1 (of 8 available processors)

Solution count 0

Model is infeasible
Best objective -, best bound -, gap -

Gurobi 7.5.1 (mac64, Python) logging started Mon Oct 16 15:43:01 2017

Academic license - for non-commercial use only
Optimize a model with 173 rows, 126 columns and 690 nonzeros
Variable types: 18 continuous, 108 integer (108 binary)
Coefficient statistics:
  Matrix range     [1e+00, 1e+04]
  Objective range  [1e+00, 2e+01]
  Bounds range     [1e+00, 1e+00]
  RHS range        [1e+00, 1e+04]
Presolve removed 114 rows and 48 columns
Presolve time: 0.00s

Explored 0 nodes (0 simplex iterations) in 0.00 seconds
Thread count was 1 (of 8 available processors)

Solution count 0

Model is infeasible
Best objective -, best bound -, gap -

Gurobi 7.5.1 (mac64, Python) logging started Mon Oct 16 15:43:31 2017

Academic license - for non-commercial use only
Optimize a model with 117 rows, 84 columns and 460 nonzeros
Variable types: 12 continuous, 72 integer (72 binary)
Coefficient statistics:
  Matrix range     [1e+00, 1e+04]
  Objective range  [1e+00, 2e+01]
  Bounds range     [1e+00, 1e+00]
  RHS range        [1e+00, 1e+04]
Presolve removed 76 rows and 32 columns
Presolve time: 0.00s

Explored 0 nodes (0 simplex iterations) in 0.00 seconds
Thread count was 1 (of 8 available processors)

Solution count 0

Model is infeasible
Best objective -, best bound -, gap -

Gurobi 7.5.1 (mac64, Python) logging started Mon Oct 16 15:44:01 2017

Academic license - for non-commercial use only
Optimize a model with 117 rows, 84 columns and 460 nonzeros
Variable types: 12 continuous, 72 integer (72 binary)
Coefficient statistics:
  Matrix range     [1e+00, 1e+04]
  Objective range  [1e+00, 2e+01]
  Bounds range     [1e+00, 1e+00]
  RHS range        [1e+00, 1e+04]
Presolve removed 76 rows and 32 columns
Presolve time: 0.00s

Explored 0 nodes (0 simplex iterations) in 0.00 seconds
Thread count was 1 (of 8 available processors)

Solution count 0

Model is infeasible
Best objective -, best bound -, gap -

Gurobi 7.5.1 (mac64, Python) logging started Mon Oct 16 15:48:30 2017

Academic license - for non-commercial use only
Optimize a model with 61 rows, 42 columns and 230 nonzeros
Variable types: 6 continuous, 36 integer (36 binary)
Coefficient statistics:
  Matrix range     [1e+00, 1e+04]
  Objective range  [1e+00, 2e+01]
  Bounds range     [1e+00, 1e+00]
  RHS range        [1e+00, 1e+04]
Found heuristic solution: objective 0

Explored 0 nodes (0 simplex iterations) in 0.00 seconds
Thread count was 1 (of 8 available processors)

Solution count 1: 0 

Optimal solution found (tolerance 1.00e-04)
Best objective 0.000000000000e+00, best bound 0.000000000000e+00, gap 0.0000%

Gurobi 7.5.1 (mac64, Python) logging started Mon Oct 16 15:49:09 2017

Academic license - for non-commercial use only
Optimize a model with 117 rows, 84 columns and 460 nonzeros
Variable types: 12 continuous, 72 integer (72 binary)
Coefficient statistics:
  Matrix range     [1e+00, 1e+04]
  Objective range  [1e+00, 2e+01]
  Bounds range     [1e+00, 1e+00]
  RHS range        [1e+00, 1e+04]
Presolve removed 76 rows and 32 columns
Presolve time: 0.00s

Explored 0 nodes (0 simplex iterations) in 0.00 seconds
Thread count was 1 (of 8 available processors)

Solution count 0

Model is infeasible
Best objective -, best bound -, gap -

Gurobi 7.5.1 (mac64, Python) logging started Mon Oct 16 16:04:00 2017

Academic license - for non-commercial use only
Optimize a model with 117 rows, 84 columns and 460 nonzeros
Variable types: 12 continuous, 72 integer (72 binary)
Coefficient statistics:
  Matrix range     [1e+00, 1e+04]
  Objective range  [1e+00, 2e+01]
  Bounds range     [1e+00, 1e+00]
  RHS range        [1e+00, 1e+04]
Presolve removed 76 rows and 32 columns
Presolve time: 0.00s

Explored 0 nodes (0 simplex iterations) in 0.00 seconds
Thread count was 1 (of 8 available processors)

Solution count 0

Model is infeasible
Best objective -, best bound -, gap -

Gurobi 7.5.1 (mac64, Python) logging started Mon Oct 16 16:04:58 2017

Academic license - for non-commercial use only
Optimize a model with 117 rows, 84 columns and 460 nonzeros
Variable types: 12 continuous, 72 integer (72 binary)
Coefficient statistics:
  Matrix range     [1e+00, 1e+04]
  Objective range  [1e+00, 2e+01]
  Bounds range     [1e+00, 1e+00]
  RHS range        [1e+00, 1e+04]
Presolve removed 76 rows and 32 columns
Presolve time: 0.00s

Explored 0 nodes (0 simplex iterations) in 0.00 seconds
Thread count was 1 (of 8 available processors)

Solution count 0

Model is infeasible
Best objective -, best bound -, gap -

Gurobi 7.5.1 (mac64, Python) logging started Mon Oct 16 16:05:48 2017

Academic license - for non-commercial use only
Optimize a model with 117 rows, 84 columns and 460 nonzeros
Variable types: 12 continuous, 72 integer (72 binary)
Coefficient statistics:
  Matrix range     [1e+00, 1e+04]
  Objective range  [1e+00, 2e+01]
  Bounds range     [1e+00, 1e+00]
  RHS range        [1e+00, 1e+04]
Presolve removed 76 rows and 32 columns
Presolve time: 0.00s

Explored 0 nodes (0 simplex iterations) in 0.00 seconds
Thread count was 1 (of 8 available processors)

Solution count 0

Model is infeasible
Best objective -, best bound -, gap -

Gurobi 7.5.1 (mac64, Python) logging started Mon Oct 16 16:18:04 2017

Academic license - for non-commercial use only
Optimize a model with 1537 rows, 1404 columns and 9260 nonzeros
Variable types: 52 continuous, 1352 integer (1352 binary)
Coefficient statistics:
  Matrix range     [1e+00, 1e+04]
  Objective range  [1e+00, 4e+01]
  Bounds range     [1e+00, 1e+00]
  RHS range        [1e+00, 1e+04]
Presolve removed 1250 rows and 560 columns
Presolve time: 0.01s

Explored 0 nodes (0 simplex iterations) in 0.01 seconds
Thread count was 1 (of 8 available processors)

Solution count 0

Model is infeasible
Best objective -, best bound -, gap -

Gurobi 7.5.1 (mac64, Python) logging started Mon Oct 16 16:18:20 2017

Academic license - for non-commercial use only
Optimize a model with 117 rows, 84 columns and 460 nonzeros
Variable types: 12 continuous, 72 integer (72 binary)
Coefficient statistics:
  Matrix range     [1e+00, 1e+04]
  Objective range  [1e+00, 2e+01]
  Bounds range     [1e+00, 1e+00]
  RHS range        [1e+00, 1e+04]
Presolve removed 76 rows and 32 columns
Presolve time: 0.00s

Explored 0 nodes (0 simplex iterations) in 0.00 seconds
Thread count was 1 (of 8 available processors)

Solution count 0

Model is infeasible
Best objective -, best bound -, gap -

Gurobi 7.5.1 (mac64, Python) logging started Mon Oct 16 16:18:32 2017

Academic license - for non-commercial use only
Optimize a model with 117 rows, 84 columns and 460 nonzeros
Coefficient statistics:
  Matrix range     [1e+00, 1e+04]
  Objective range  [1e+00, 2e+01]
  Bounds range     [0e+00, 0e+00]
  RHS range        [1e+00, 1e+04]
Presolve removed 54 rows and 2 columns
Presolve time: 0.01s

Solved in 0 iterations and 0.01 seconds
Infeasible model

Gurobi 7.5.1 (mac64, Python) logging started Mon Oct 16 16:19:05 2017

Academic license - for non-commercial use only
Optimize a model with 93 rows, 84 columns and 436 nonzeros
Coefficient statistics:
  Matrix range     [1e+00, 1e+04]
  Objective range  [1e+00, 2e+01]
  Bounds range     [0e+00, 0e+00]
  RHS range        [1e+00, 1e+04]
Presolve removed 12 rows and 2 columns
Presolve time: 0.00s

Solved in 0 iterations and 0.00 seconds
Infeasible model

Gurobi 7.5.1 (mac64, Python) logging started Mon Oct 16 16:19:14 2017

Academic license - for non-commercial use only
Optimize a model with 45 rows, 84 columns and 268 nonzeros
Coefficient statistics:
  Matrix range     [1e+00, 3e+01]
  Objective range  [1e+00, 2e+01]
  Bounds range     [0e+00, 0e+00]
  RHS range        [1e+00, 1e+03]
Presolve removed 24 rows and 14 columns
Presolve time: 0.00s

Solved in 0 iterations and 0.00 seconds
Infeasible model

Gurobi 7.5.1 (mac64, Python) logging started Mon Oct 16 16:19:22 2017

Academic license - for non-commercial use only
Optimize a model with 115 rows, 84 columns and 448 nonzeros
Coefficient statistics:
  Matrix range     [1e+00, 1e+04]
  Objective range  [1e+00, 2e+01]
  Bounds range     [0e+00, 0e+00]
  RHS range        [1e+00, 1e+04]
Presolve removed 54 rows and 2 columns
Presolve time: 0.00s
Presolved: 61 rows, 82 columns, 356 nonzeros

Iteration    Objective       Primal Inf.    Dual Inf.      Time
       0    0.0000000e+00   0.000000e+00   0.000000e+00      0s
       0    0.0000000e+00   0.000000e+00   0.000000e+00      0s

Solved in 0 iterations and 0.01 seconds
Optimal objective  0.000000000e+00

Gurobi 7.5.1 (mac64, Python) logging started Mon Oct 16 16:19:35 2017

Academic license - for non-commercial use only
Optimize a model with 107 rows, 84 columns and 360 nonzeros
Coefficient statistics:
  Matrix range     [1e+00, 1e+04]
  Objective range  [1e+00, 2e+01]
  Bounds range     [0e+00, 0e+00]
  RHS range        [1e+00, 1e+04]
Presolve removed 64 rows and 28 columns
Presolve time: 0.00s
Presolved: 43 rows, 56 columns, 192 nonzeros

Iteration    Objective       Primal Inf.    Dual Inf.      Time
       0    0.0000000e+00   2.000000e+00   0.000000e+00      0s
       2    1.0000000e+00   0.000000e+00   0.000000e+00      0s

Solved in 2 iterations and 0.00 seconds
Optimal objective  1.000000000e+00

Gurobi 7.5.1 (mac64, Python) logging started Mon Oct 16 16:19:48 2017

Academic license - for non-commercial use only
Optimize a model with 115 rows, 84 columns and 448 nonzeros
Coefficient statistics:
  Matrix range     [1e+00, 1e+04]
  Objective range  [1e+00, 2e+01]
  Bounds range     [0e+00, 0e+00]
  RHS range        [1e+00, 1e+04]
Presolve removed 54 rows and 2 columns
Presolve time: 0.00s

Solved in 0 iterations and 0.00 seconds
Infeasible model

Gurobi 7.5.1 (mac64, Python) logging started Mon Oct 16 16:19:59 2017

Academic license - for non-commercial use only
Optimize a model with 115 rows, 84 columns and 400 nonzeros
Coefficient statistics:
  Matrix range     [1e+00, 1e+04]
  Objective range  [1e+00, 2e+01]
  Bounds range     [0e+00, 0e+00]
  RHS range        [1e+00, 1e+04]
Presolve removed 54 rows and 10 columns
Presolve time: 0.00s

Solved in 0 iterations and 0.00 seconds
Infeasible model

Gurobi 7.5.1 (mac64, Python) logging started Mon Oct 16 16:20:06 2017

Academic license - for non-commercial use only
Optimize a model with 112 rows, 84 columns and 400 nonzeros
Coefficient statistics:
  Matrix range     [1e+00, 1e+04]
  Objective range  [1e+00, 2e+01]
  Bounds range     [0e+00, 0e+00]
  RHS range        [1e+00, 1e+04]
Presolve removed 36 rows and 10 columns
Presolve time: 0.00s
Presolved: 76 rows, 74 columns, 354 nonzeros

Iteration    Objective       Primal Inf.    Dual Inf.      Time
       0    0.0000000e+00   0.000000e+00   0.000000e+00      0s
       0    0.0000000e+00   0.000000e+00   0.000000e+00      0s

Solved in 0 iterations and 0.00 seconds
Optimal objective  0.000000000e+00

Gurobi 7.5.1 (mac64, Python) logging started Mon Oct 16 16:30:16 2017

Academic license - for non-commercial use only
Optimize a model with 117 rows, 110 columns and 460 nonzeros
Coefficient statistics:
  Matrix range     [1e+00, 1e+04]
  Objective range  [1e+00, 2e+01]
  Bounds range     [0e+00, 0e+00]
  RHS range        [1e+00, 1e+04]
Presolve removed 54 rows and 28 columns
Presolve time: 0.00s

Solved in 0 iterations and 0.00 seconds
Infeasible model

Gurobi 7.5.1 (mac64, Python) logging started Mon Oct 16 16:34:05 2017

Academic license - for non-commercial use only

Gurobi 7.5.1 (mac64, Python) logging started Mon Oct 16 16:34:54 2017

Academic license - for non-commercial use only

Gurobi 7.5.1 (mac64, Python) logging started Mon Oct 16 17:03:30 2017

Academic license - for non-commercial use only

Gurobi 7.5.1 (mac64, Python) logging started Mon Oct 16 17:04:23 2017

Academic license - for non-commercial use only

Gurobi 7.5.1 (mac64, Python) logging started Mon Oct 16 17:10:03 2017

Academic license - for non-commercial use only

Gurobi 7.5.1 (mac64, Python) logging started Mon Oct 16 17:10:39 2017

Academic license - for non-commercial use only

Gurobi 7.5.1 (mac64, Python) logging started Mon Oct 16 17:20:40 2017

Academic license - for non-commercial use only

Gurobi 7.5.1 (mac64, Python) logging started Mon Oct 16 17:21:21 2017

Academic license - for non-commercial use only

Gurobi 7.5.1 (mac64, Python) logging started Mon Oct 16 17:21:37 2017

Academic license - for non-commercial use only

Gurobi 7.5.1 (mac64, Python) logging started Mon Oct 16 17:21:57 2017

Academic license - for non-commercial use only

Gurobi 7.5.1 (mac64, Python) logging started Mon Oct 16 17:22:40 2017

Academic license - for non-commercial use only

Gurobi 7.5.1 (mac64, Python) logging started Mon Oct 16 17:23:00 2017

Academic license - for non-commercial use only

Gurobi 7.5.1 (mac64, Python) logging started Mon Oct 16 17:25:07 2017

Academic license - for non-commercial use only

Gurobi 7.5.1 (mac64, Python) logging started Mon Oct 16 17:36:58 2017

Academic license - for non-commercial use only

Gurobi 7.5.1 (mac64, Python) logging started Mon Oct 16 17:37:15 2017

Academic license - for non-commercial use only
Optimize a model with 21 rows, 112 columns and 288 nonzeros
Variable types: 14 continuous, 98 integer (98 binary)
Coefficient statistics:
  Matrix range     [1e+00, 3e+01]
  Objective range  [1e+00, 6e+00]
  Bounds range     [1e+00, 1e+00]
  RHS range        [1e+00, 2e+02]
Found heuristic solution: objective 0

Explored 0 nodes (0 simplex iterations) in 0.00 seconds
Thread count was 1 (of 8 available processors)

Solution count 1: 0 

Optimal solution found (tolerance 1.00e-04)
Best objective 0.000000000000e+00, best bound 0.000000000000e+00, gap 0.0000%

Gurobi 7.5.1 (mac64, Python) logging started Mon Oct 16 17:41:39 2017

Academic license - for non-commercial use only
Optimize a model with 20 rows, 112 columns and 274 nonzeros
Variable types: 14 continuous, 98 integer (98 binary)
Coefficient statistics:
  Matrix range     [1e+00, 3e+01]
  Objective range  [1e+00, 6e+00]
  Bounds range     [1e+00, 1e+00]
  RHS range        [1e+00, 2e+02]
Found heuristic solution: objective 0

Explored 0 nodes (0 simplex iterations) in 0.00 seconds
Thread count was 1 (of 8 available processors)

Solution count 1: 0 

Optimal solution found (tolerance 1.00e-04)
Best objective 0.000000000000e+00, best bound 0.000000000000e+00, gap 0.0000%

Gurobi 7.5.1 (mac64, Python) logging started Mon Oct 16 17:42:59 2017

Academic license - for non-commercial use only
Optimize a model with 20 rows, 112 columns and 274 nonzeros
Variable types: 14 continuous, 98 integer (98 binary)
Coefficient statistics:
  Matrix range     [1e+00, 3e+01]
  Objective range  [1e+00, 6e+00]
  Bounds range     [1e+00, 1e+00]
  RHS range        [1e+00, 2e+02]
Found heuristic solution: objective 0

Explored 0 nodes (0 simplex iterations) in 0.00 seconds
Thread count was 1 (of 8 available processors)

Solution count 1: 0 

Optimal solution found (tolerance 1.00e-04)
Best objective 0.000000000000e+00, best bound 0.000000000000e+00, gap 0.0000%

Gurobi 7.5.1 (mac64, Python) logging started Mon Oct 16 17:47:26 2017

Academic license - for non-commercial use only
Optimize a model with 20 rows, 112 columns and 274 nonzeros
Variable types: 14 continuous, 98 integer (98 binary)
Coefficient statistics:
  Matrix range     [1e+00, 3e+01]
  Objective range  [1e+00, 6e+00]
  Bounds range     [1e+00, 1e+00]
  RHS range        [1e+00, 2e+02]
Found heuristic solution: objective 0

Explored 0 nodes (0 simplex iterations) in 0.00 seconds
Thread count was 1 (of 8 available processors)

Solution count 1: 0 

Optimal solution found (tolerance 1.00e-04)
Best objective 0.000000000000e+00, best bound 0.000000000000e+00, gap 0.0000%

Gurobi 7.5.1 (mac64, Python) logging started Mon Oct 16 17:47:49 2017

Academic license - for non-commercial use only
Optimize a model with 20 rows, 112 columns and 274 nonzeros
Variable types: 14 continuous, 98 integer (98 binary)
Coefficient statistics:
  Matrix range     [1e+00, 3e+01]
  Objective range  [1e+00, 6e+00]
  Bounds range     [1e+00, 1e+00]
  RHS range        [1e+00, 2e+02]
Found heuristic solution: objective 0

Explored 0 nodes (0 simplex iterations) in 0.00 seconds
Thread count was 1 (of 8 available processors)

Solution count 1: 0 

Optimal solution found (tolerance 1.00e-04)
Best objective 0.000000000000e+00, best bound 0.000000000000e+00, gap 0.0000%

Gurobi 7.5.1 (mac64, Python) logging started Mon Oct 16 17:48:33 2017

Academic license - for non-commercial use only
Optimize a model with 20 rows, 112 columns and 274 nonzeros
Variable types: 14 continuous, 98 integer (98 binary)
Coefficient statistics:
  Matrix range     [1e+00, 3e+01]
  Objective range  [1e+00, 6e+00]
  Bounds range     [1e+00, 1e+00]
  RHS range        [1e+00, 2e+02]
Found heuristic solution: objective 0

Explored 0 nodes (0 simplex iterations) in 0.00 seconds
Thread count was 1 (of 8 available processors)

Solution count 1: 0 

Optimal solution found (tolerance 1.00e-04)
Best objective 0.000000000000e+00, best bound 0.000000000000e+00, gap 0.0000%

Gurobi 7.5.1 (mac64, Python) logging started Mon Oct 16 17:50:50 2017

Academic license - for non-commercial use only
Optimize a model with 20 rows, 112 columns and 274 nonzeros
Variable types: 14 continuous, 98 integer (98 binary)
Coefficient statistics:
  Matrix range     [1e+00, 3e+01]
  Objective range  [1e+00, 6e+00]
  Bounds range     [1e+00, 1e+00]
  RHS range        [1e+00, 2e+02]
Found heuristic solution: objective 0

Explored 0 nodes (0 simplex iterations) in 0.00 seconds
Thread count was 1 (of 8 available processors)

Solution count 1: 0 

Optimal solution found (tolerance 1.00e-04)
Best objective 0.000000000000e+00, best bound 0.000000000000e+00, gap 0.0000%

Gurobi 7.5.1 (mac64, Python) logging started Mon Oct 16 18:22:51 2017

Academic license - for non-commercial use only
Optimize a model with 20 rows, 112 columns and 272 nonzeros
Variable types: 14 continuous, 98 integer (98 binary)
Coefficient statistics:
  Matrix range     [1e+00, 3e+01]
  Objective range  [1e+00, 6e+00]
  Bounds range     [1e+00, 1e+00]
  RHS range        [1e+00, 2e+02]
Found heuristic solution: objective 0

Explored 0 nodes (0 simplex iterations) in 0.00 seconds
Thread count was 1 (of 8 available processors)

Solution count 1: 0 

Optimal solution found (tolerance 1.00e-04)
Best objective 0.000000000000e+00, best bound 0.000000000000e+00, gap 0.0000%

Gurobi 7.5.1 (mac64, Python) logging started Mon Oct 16 18:26:38 2017

Academic license - for non-commercial use only
Optimize a model with 20 rows, 112 columns and 262 nonzeros
Variable types: 14 continuous, 98 integer (98 binary)
Coefficient statistics:
  Matrix range     [1e+00, 3e+01]
  Objective range  [1e+00, 6e+00]
  Bounds range     [1e+00, 1e+00]
  RHS range        [1e+00, 2e+02]
Found heuristic solution: objective 0

Explored 0 nodes (0 simplex iterations) in 0.00 seconds
Thread count was 1 (of 8 available processors)

Solution count 1: 0 

Optimal solution found (tolerance 1.00e-04)
Best objective 0.000000000000e+00, best bound 0.000000000000e+00, gap 0.0000%

Gurobi 7.5.1 (mac64, Python) logging started Mon Oct 16 18:29:22 2017

Academic license - for non-commercial use only
Optimize a model with 21 rows, 112 columns and 266 nonzeros
Variable types: 14 continuous, 98 integer (98 binary)
Coefficient statistics:
  Matrix range     [1e+00, 3e+01]
  Objective range  [1e+00, 6e+00]
  Bounds range     [1e+00, 1e+00]
  RHS range        [1e+00, 2e+02]
Found heuristic solution: objective 9
Presolve removed 2 rows and 30 columns
Presolve time: 0.01s
Presolved: 19 rows, 82 columns, 204 nonzeros
Variable types: 0 continuous, 82 integer (82 binary)

Root relaxation: objective 0.000000e+00, 19 iterations, 0.00 seconds

    Nodes    |    Current Node    |     Objective Bounds      |     Work
 Expl Unexpl |  Obj  Depth IntInf | Incumbent    BestBd   Gap | It/Node Time

*    0     0               0       0.0000000    0.00000  0.00%     -    0s

Explored 0 nodes (19 simplex iterations) in 0.01 seconds
Thread count was 8 (of 8 available processors)

Solution count 2: 0 9 

Optimal solution found (tolerance 1.00e-04)
Best objective 0.000000000000e+00, best bound 0.000000000000e+00, gap 0.0000%

Gurobi 7.5.1 (mac64, Python) logging started Mon Oct 16 18:30:19 2017

Academic license - for non-commercial use only
Optimize a model with 21 rows, 112 columns and 266 nonzeros
Variable types: 14 continuous, 98 integer (98 binary)
Coefficient statistics:
  Matrix range     [1e+00, 3e+01]
  Objective range  [1e+00, 6e+00]
  Bounds range     [1e+00, 1e+00]
  RHS range        [1e+00, 2e+02]
Found heuristic solution: objective 9
Presolve removed 2 rows and 30 columns
Presolve time: 0.00s
Presolved: 19 rows, 82 columns, 204 nonzeros
Variable types: 0 continuous, 82 integer (82 binary)

Root relaxation: objective 0.000000e+00, 19 iterations, 0.00 seconds

    Nodes    |    Current Node    |     Objective Bounds      |     Work
 Expl Unexpl |  Obj  Depth IntInf | Incumbent    BestBd   Gap | It/Node Time

*    0     0               0       0.0000000    0.00000  0.00%     -    0s

Explored 0 nodes (19 simplex iterations) in 0.00 seconds
Thread count was 8 (of 8 available processors)

Solution count 2: 0 9 

Optimal solution found (tolerance 1.00e-04)
Best objective 0.000000000000e+00, best bound 0.000000000000e+00, gap 0.0000%
